2020 0 1040 30 2050 1515 1990 2495 2555 505 1545 1010 535 2525 1485 487 2543 517 2507 1022 1557 18 1058 48 12 54 541 2994 493 547 559 1539 2026 1028 24 42 529 1503 1509 1996 2056 2501 499 998 1004 1016 1046 1052 1527 1984 2002 2032 2044 2483 
